NAME: ./prFile/tspFile/tsp_file77.tsp
COMMENT: TSP file generated by Python
TYPE: TSP
DIMENSION: 40
EDGE_WEIGHT_TYPE: EUC_2D
NODE_COORD_SECTION
1 77 24
2 42 84
3 100 39
4 74 67
5 48 20
6 23 73
7 75 50
8 75 91
9 55 94
10 97 37
11 53 63
12 1 28
13 4 98
14 6 8
15 32 3
16 72 64
17 34 32
18 58 73
19 18 30
20 77 51
21 68 67
22 38 31
23 67 75
24 100 77
25 63 22
26 48 30
27 81 19
28 25 32
29 14 85
30 2 51
31 74 14
32 42 23
33 43 51
34 14 35
35 28 24
36 54 82
37 80 48
38 27 24
39 30 29
40 93 69
EOF
